proyfinal/src/viki/013/experimentInOfficeAgust.take6.output/bf2ca6b9-87e4-45b5-b590-93091b762c46.als.out
Reading from standard input... Use '--help' for help.
============================[ Problem Statistics ]=============================
|                                                                             |
|  Number of variables:         87638                                         |
|  Number of clauses:          161767                                         |
|  Parse time:                   0.03 s                                       |
|                                                                             |
============================[ Search Statistics ]==============================
| Conflicts |          ORIGINAL         |          LEARNT          | Progress |
|           |    Vars  Clauses Literals |    Limit  Clauses Lit/Cl |          |
===============================================================================
|       100 |   63787   110303   275483 |    40444      100     18 | 27.215 % |
|       250 |   63787   110303   275483 |    44488      250     34 | 27.215 % |
|       475 |   63787   110303   275483 |    48937      475     41 | 27.215 % |
|       812 |   63787   110303   275483 |    53831      812     66 | 27.215 % |
|      1318 |   63787   110303   275483 |    59214     1318     74 | 27.215 % |
|      2077 |   63758   110185   275209 |    65136     2076     91 | 27.249 % |
|      3216 |   63757   110141   275119 |    71649     3211     85 | 27.250 % |
|      4924 |   54649    82585   207310 |    78814     4860     75 | 37.642 % |
|      7486 |   54561    82257   206542 |    86696     7416     76 | 37.743 % |
|     11330 |   54274    81269   204218 |    95365    10903     71 | 38.070 % |
|     17096 |   53798    79325   199457 |   104902    14482     69 | 38.613 % |
===============================================================================
restarts              : 63
conflicts             : 18708          (7270 /sec)
decisions             : 74478          (0.00 % random) (28943 /sec)
propagations          : 27524139       (10696031 /sec)
conflict literals     : 1324437        (41.86 % deleted)
Memory used           : 37.57 MB
CPU time              : 2.5733 s

INDETERMINATE
